db/inputs/76962651023496146305510106041210528724.smt2
(set-logic QF_FP)
(declare-const x0 (_ FloatingPoint 11 53))
(declare-const x1 (_ FloatingPoint 11 53))
(declare-const x2 (_ FloatingPoint 11 53))
(declare-const x3 (_ FloatingPoint 11 53))
(declare-const x4 (_ FloatingPoint 11 53))
(declare-const x5 (_ FloatingPoint 11 53))
(declare-const x6 (_ FloatingPoint 11 53))
(declare-const x7 (_ FloatingPoint 11 53))
(declare-const x8 (_ FloatingPoint 11 53))
(assert (fp.leq (fp.mul RNE (fp.div RNE (fp.mul RNE (fp.mul RNE x2 x2) (fp.mul RNE x5 x0)) (fp.mul RNE (fp.neg x2) (fp.div RNE x4 x8))) (fp.mul RNE (fp.add RNE (fp.add RNE x0 x2) (fp.neg x8)) (fp.div RNE (fp.add RNE x4 x1) (fp.div RNE x5 x0)))) (fp.sub RNE (fp.neg (fp.div RNE (fp.div RNE x1 x8) (fp.neg x3))) (fp.mul RNE (fp.mul RNE (fp.add RNE x7 x5) (fp.mul RNE x7 x2)) (fp.div RNE (fp.mul RNE x8 x6) (fp.div RNE x4 x3))))))
(check-sat)
