db/data/76962651023496146305510106041210528724.z3.out
-------------------
2500.135561975
